objective value:                                11814
t_x_2                                               1 	(obj:42)
t_x_5                                               1 	(obj:0)
t_x_6                                               1 	(obj:5)
t_x_12                                              1 	(obj:14)
t_x_13                                              1 	(obj:17)
t_x_20                                              1 	(obj:12)
t_x_21                                              1 	(obj:25)
t_x_24                                              1 	(obj:20)
t_x_26                                              1 	(obj:22)
t_x_28                                              1 	(obj:47)
t_x_29                                              1 	(obj:69)
t_x_30                                              1 	(obj:1)
t_x_32                                              1 	(obj:12)
t_x_33                                              1 	(obj:15)
t_x_35                                              1 	(obj:20)
t_x_37                                              1 	(obj:24)
t_x_40                                              1 	(obj:24)
t_x_41                                              1 	(obj:55)
t_x_45                                              1 	(obj:14)
t_x_48                                              1 	(obj:31)
t_x_51                                              1 	(obj:15)
t_x_53                                              1 	(obj:12)
t_x_54                                              1 	(obj:16)
t_x_63                                              1 	(obj:24)
t_x_64                                              1 	(obj:27)
t_x_67                                              1 	(obj:36)
t_x_70                                              1 	(obj:4)
t_x_71                                              1 	(obj:15)
t_x_74                                              1 	(obj:27)
t_x_75                                              1 	(obj:62)
t_x_76                                              1 	(obj:9)
t_x_79                                              1 	(obj:50)
t_x_84                                              1 	(obj:19)
t_x_85                                              1 	(obj:63)
t_x_87                                              1 	(obj:20)
t_x_93                                              1 	(obj:13)
t_x_95                                              1 	(obj:10)
t_x_96                                              1 	(obj:11)
t_x_97                                              1 	(obj:24)
t_x_101                                             1 	(obj:26)
t_x_102                                             1 	(obj:14)
t_x_107                                             1 	(obj:19)
t_x_116                                             1 	(obj:32)
t_x_117                                             1 	(obj:16)
t_x_118                                             1 	(obj:24)
t_x_120                                             1 	(obj:13)
t_x_128                                             1 	(obj:33)
t_x_130                                             1 	(obj:40)
t_x_134                                             1 	(obj:28)
t_x_135                                             1 	(obj:12)
t_x_136                                             1 	(obj:4)
t_x_139                                             1 	(obj:11)
t_x_142                                             1 	(obj:22)
t_x_147                                             1 	(obj:35)
t_x_154                                             1 	(obj:45)
t_x_155                                             1 	(obj:37)
t_x_162                                             1 	(obj:13)
t_x_165                                             1 	(obj:3)
t_x_166                                             1 	(obj:29)
t_x_168                                             1 	(obj:22)
t_x_170                                             1 	(obj:7)
t_x_176                                             1 	(obj:17)
t_x_178                                             1 	(obj:8)
t_x_179                                             1 	(obj:6)
t_x_182                                             1 	(obj:11)
t_x_184                                             1 	(obj:7)
t_x_188                                             1 	(obj:24)
t_x_190                                             1 	(obj:1)
t_x_191                                             1 	(obj:15)
t_x_194                                             1 	(obj:37)
t_x_202                                             1 	(obj:35)
t_x_209                                             1 	(obj:9)
t_x_210                                             1 	(obj:15)
t_x_215                                             1 	(obj:3)
t_x_222                                             1 	(obj:26)
t_x_224                                             1 	(obj:31)
t_x_226                                             1 	(obj:18)
t_x_229                                             1 	(obj:12)
t_x_234                                             1 	(obj:31)
t_x_238                                             1 	(obj:4)
t_x_240                                             1 	(obj:36)
t_x_242                                             1 	(obj:40)
t_x_243                                             1 	(obj:11)
t_x_244                                             1 	(obj:16)
t_x_245                                             1 	(obj:20)
t_x_246                                             1 	(obj:3)
t_x_247                                             1 	(obj:6)
t_x_253                                             1 	(obj:4)
t_x_266                                             1 	(obj:55)
t_x_268                                             1 	(obj:39)
t_x_269                                             1 	(obj:29)
t_x_270                                             1 	(obj:40)
t_x_272                                             1 	(obj:52)
t_x_274                                             1 	(obj:31)
t_x_278                                             1 	(obj:42)
t_x_281                                             1 	(obj:30)
t_x_283                                             1 	(obj:24)
t_x_284                                             1 	(obj:21)
t_x_288                                             1 	(obj:9)
t_x_299                                             1 	(obj:10)
t_x_300                                             1 	(obj:9)
t_x_302                                             1 	(obj:11)
t_x_303                                             1 	(obj:8)
t_x_314                                             1 	(obj:45)
t_x_315                                             1 	(obj:25)
t_x_318                                             1 	(obj:21)
t_x_320                                             1 	(obj:46)
t_x_321                                             1 	(obj:7)
t_x_323                                             1 	(obj:29)
t_x_326                                             1 	(obj:20)
t_x_327                                             1 	(obj:27)
t_x_329                                             1 	(obj:13)
t_x_330                                             1 	(obj:38)
t_x_331                                             1 	(obj:33)
t_x_336                                             1 	(obj:23)
t_x_339                                             1 	(obj:4)
t_x_341                                             1 	(obj:13)
t_x_346                                             1 	(obj:26)
t_x_352                                             1 	(obj:7)
t_x_354                                             1 	(obj:6)
t_x_358                                             1 	(obj:10)
t_x_361                                             1 	(obj:28)
t_x_362                                             1 	(obj:78)
t_x_363                                             1 	(obj:1)
t_x_366                                             1 	(obj:36)
t_x_380                                             1 	(obj:15)
t_x_381                                             1 	(obj:0)
t_x_385                                             1 	(obj:9)
t_x_390                                             1 	(obj:4)
t_x_392                                             1 	(obj:10)
t_x_399                                             1 	(obj:2)
t_x_401                                             1 	(obj:12)
t_x_404                                             1 	(obj:8)
t_x_407                                             1 	(obj:14)
t_x_412                                             1 	(obj:62)
t_x_415                                             1 	(obj:17)
t_x_423                                             1 	(obj:28)
t_x_425                                             1 	(obj:21)
t_x_427                                             1 	(obj:8)
t_x_432                                             1 	(obj:10)
t_x_435                                             1 	(obj:10)
t_x_436                                             1 	(obj:26)
t_x_442                                             1 	(obj:41)
t_x_445                                             1 	(obj:7)
t_x_450                                             1 	(obj:8)
t_x_453                                             1 	(obj:12)
t_x_458                                             1 	(obj:10)
t_x_463                                             1 	(obj:10)
t_x_464                                             1 	(obj:7)
t_x_466                                             1 	(obj:3)
t_x_470                                             1 	(obj:25)
t_x_471                                             1 	(obj:5)
t_x_475                                             1 	(obj:15)
t_x_477                                             1 	(obj:11)
t_x_479                                             1 	(obj:9)
t_x_481                                             1 	(obj:12)
t_x_482                                             1 	(obj:1)
t_x_483                                             1 	(obj:16)
t_x_490                                             1 	(obj:6)
t_x_494                                             1 	(obj:4)
t_x_495                                             1 	(obj:0)
t_x_502                                             1 	(obj:20)
t_x_503                                             1 	(obj:0)
t_x_505                                             1 	(obj:19)
t_x_509                                             1 	(obj:16)
t_x_510                                             1 	(obj:7)
t_x_512                                             1 	(obj:4)
t_x_514                                             1 	(obj:20)
t_x_517                                             1 	(obj:9)
t_x_520                                             1 	(obj:22)
t_x_524                                             1 	(obj:9)
t_x_528                                             1 	(obj:6)
t_x_530                                             1 	(obj:13)
t_x_534                                             1 	(obj:1)
t_x_536                                             1 	(obj:8)
t_x_540                                             1 	(obj:39)
t_x_541                                             1 	(obj:13)
t_x_542                                             1 	(obj:10)
t_x_544                                             1 	(obj:15)
t_x_546                                             1 	(obj:1)
t_x_547                                             1 	(obj:26)
t_x_550                                             1 	(obj:6)
t_x_553                                             1 	(obj:27)
t_x_554                                             1 	(obj:4)
t_x_559                                             1 	(obj:9)
t_x_560                                             1 	(obj:6)
t_x_561                                             1 	(obj:1)
t_x_564                                             1 	(obj:16)
t_x_566                                             1 	(obj:9)
t_x_568                                             1 	(obj:2)
t_x_569                                             1 	(obj:22)
t_x_571                                             1 	(obj:31)
t_x_575                                             1 	(obj:43)
t_x_592                                             1 	(obj:17)
t_x_597                                             1 	(obj:14)
t_x_602                                             1 	(obj:0)
t_x_603                                             1 	(obj:20)
t_x_604                                             1 	(obj:15)
t_x_609                                             1 	(obj:14)
t_x_610                                             1 	(obj:67)
t_x_612                                             1 	(obj:1)
t_x_615                                             1 	(obj:51)
t_x_617                                             1 	(obj:10)
t_x_623                                             1 	(obj:8)
t_x_626                                             1 	(obj:9)
t_x_632                                             1 	(obj:32)
t_x_633                                             1 	(obj:6)
t_x_635                                             1 	(obj:4)
t_x_637                                             1 	(obj:45)
t_x_639                                             1 	(obj:5)
t_x_641                                             1 	(obj:34)
t_x_644                                             1 	(obj:24)
t_x_646                                             1 	(obj:5)
t_x_647                                             1 	(obj:64)
t_x_653                                             1 	(obj:20)
t_x_654                                             1 	(obj:8)
t_x_655                                             1 	(obj:10)
t_x_656                                             1 	(obj:37)
t_x_662                                             1 	(obj:9)
t_x_664                                             1 	(obj:28)
t_x_668                                             1 	(obj:23)
t_x_669                                             1 	(obj:16)
t_x_670                                             1 	(obj:0)
t_x_671                                             1 	(obj:28)
t_x_678                                             1 	(obj:16)
t_x_679                                             1 	(obj:29)
t_x_684                                             1 	(obj:5)
t_x_688                                             1 	(obj:17)
t_x_692                                             1 	(obj:3)
t_x_697                                             1 	(obj:2)
t_x_699                                             1 	(obj:11)
t_x_701                                             1 	(obj:2)
t_x_705                                             1 	(obj:18)
t_x_706                                             1 	(obj:35)
t_x_711                                             1 	(obj:6)
t_x_720                                             1 	(obj:18)
t_x_723                                             1 	(obj:28)
t_x_732                                             1 	(obj:0)
t_x_734                                             1 	(obj:31)
t_x_735                                             1 	(obj:25)
t_x_737                                             1 	(obj:2)
t_x_742                                             1 	(obj:30)
t_x_744                                             1 	(obj:0)
t_x_745                                             1 	(obj:84)
t_x_746                                             1 	(obj:23)
t_x_752                                             1 	(obj:15)
t_x_758                                             1 	(obj:1)
t_x_761                                             1 	(obj:38)
t_x_762                                             1 	(obj:32)
t_x_765                                             1 	(obj:43)
t_x_768                                             1 	(obj:20)
t_x_772                                             1 	(obj:23)
t_x_776                                             1 	(obj:3)
t_x_780                                             1 	(obj:14)
t_x_790                                             1 	(obj:23)
t_x_792                                             1 	(obj:29)
t_x_794                                             1 	(obj:13)
t_x_798                                             1 	(obj:29)
t_x_799                                             1 	(obj:7)
t_x_800                                             1 	(obj:49)
t_x_802                                             1 	(obj:3)
t_x_803                                             1 	(obj:1)
t_x_805                                             1 	(obj:27)
t_x_807                                             1 	(obj:0)
t_x_810                                             1 	(obj:0)
t_x_814                                             1 	(obj:1)
t_x_818                                             1 	(obj:15)
t_x_821                                             1 	(obj:41)
t_x_824                                             1 	(obj:9)
t_x_835                                             1 	(obj:2)
t_x_836                                             1 	(obj:24)
t_x_837                                             1 	(obj:4)
t_x_842                                             1 	(obj:8)
t_x_851                                             1 	(obj:3)
t_x_854                                             1 	(obj:6)
t_x_855                                             1 	(obj:39)
t_x_859                                             1 	(obj:10)
t_x_864                                             1 	(obj:10)
t_x_865                                             1 	(obj:25)
t_x_871                                             1 	(obj:15)
t_x_872                                             1 	(obj:16)
t_x_873                                             1 	(obj:15)
t_x_879                                             1 	(obj:14)
t_x_886                                             1 	(obj:6)
t_x_889                                             1 	(obj:29)
t_x_894                                             1 	(obj:46)
t_x_895                                             1 	(obj:48)
t_x_897                                             1 	(obj:22)
t_x_899                                             1 	(obj:30)
t_x_901                                             1 	(obj:35)
t_x_906                                             1 	(obj:32)
t_x_913                                             1 	(obj:4)
t_x_918                                             1 	(obj:15)
t_x_921                                             1 	(obj:40)
t_x_922                                             1 	(obj:18)
t_x_923                                             1 	(obj:16)
t_x_924                                             1 	(obj:9)
t_x_925                                             1 	(obj:45)
t_x_927                                             1 	(obj:15)
t_x_928                                             1 	(obj:1)
t_x_931                                             1 	(obj:10)
t_x_933                                             1 	(obj:4)
t_x_942                                             1 	(obj:26)
t_x_948                                             1 	(obj:19)
t_x_953                                             1 	(obj:8)
t_x_954                                             1 	(obj:6)
t_x_955                                             1 	(obj:11)
t_x_956                                             1 	(obj:3)
t_x_960                                             1 	(obj:42)
t_x_961                                             1 	(obj:47)
t_x_964                                             1 	(obj:2)
t_x_969                                             1 	(obj:1)
t_x_970                                             1 	(obj:2)
t_x_973                                             1 	(obj:30)
t_x_978                                             1 	(obj:6)
t_x_979                                             1 	(obj:11)
t_x_980                                             1 	(obj:7)
t_x_983                                             1 	(obj:38)
t_x_988                                             1 	(obj:11)
t_x_991                                             1 	(obj:8)
t_x_994                                             1 	(obj:48)
t_x_998                                             1 	(obj:12)
t_x_1003                                            1 	(obj:25)
t_x_1004                                            1 	(obj:24)
t_x_1017                                            1 	(obj:25)
t_x_1018                                            1 	(obj:5)
t_x_1022                                            1 	(obj:52)
t_x_1024                                            1 	(obj:47)
t_x_1026                                            1 	(obj:3)
t_x_1030                                            1 	(obj:0)
t_x_1033                                            1 	(obj:41)
t_x_1037                                            1 	(obj:3)
t_x_1045                                            1 	(obj:13)
t_x_1046                                            1 	(obj:17)
t_x_1051                                            1 	(obj:2)
t_x_1055                                            1 	(obj:10)
t_x_1058                                            1 	(obj:25)
t_x_1064                                            1 	(obj:18)
t_x_1069                                            1 	(obj:4)
t_x_1070                                            1 	(obj:6)
t_x_1071                                            1 	(obj:8)
t_x_1075                                            1 	(obj:13)
t_x_1078                                            1 	(obj:70)
t_x_1080                                            1 	(obj:1)
t_x_1082                                            1 	(obj:51)
t_x_1083                                            1 	(obj:16)
t_x_1091                                            1 	(obj:7)
t_x_1093                                            1 	(obj:43)
t_x_1094                                            1 	(obj:20)
t_x_1095                                            1 	(obj:12)
t_x_1096                                            1 	(obj:6)
t_x_1099                                            1 	(obj:30)
t_x_1106                                            1 	(obj:8)
t_x_1107                                            1 	(obj:35)
t_x_1109                                            1 	(obj:30)
t_x_1110                                            1 	(obj:3)
t_x_1116                                            1 	(obj:0)
t_x_1119                                            1 	(obj:0)
t_x_1121                                            1 	(obj:22)
t_x_1122                                            1 	(obj:13)
t_x_1123                                            1 	(obj:1)
t_x_1131                                            1 	(obj:4)
t_x_1135                                            1 	(obj:28)
t_x_1139                                            1 	(obj:4)
t_x_1144                                            1 	(obj:4)
t_x_1148                                            1 	(obj:15)
t_x_1151                                            1 	(obj:2)
t_x_1152                                            1 	(obj:18)
t_x_1154                                            1 	(obj:0)
t_x_1155                                            1 	(obj:15)
t_x_1158                                            1 	(obj:16)
t_x_1160                                            1 	(obj:6)
t_x_1174                                            1 	(obj:38)
t_x_1177                                            1 	(obj:3)
t_x_1181                                            1 	(obj:14)
t_x_1183                                            1 	(obj:23)
t_x_1184                                            1 	(obj:25)
t_x_1186                                            1 	(obj:14)
t_x_1190                                            1 	(obj:38)
t_x_1193                                            1 	(obj:27)
t_x_1203                                            1 	(obj:32)
t_x_1205                                            1 	(obj:6)
t_x_1207                                            1 	(obj:24)
t_x_1210                                            1 	(obj:14)
t_x_1213                                            1 	(obj:2)
t_x_1215                                            1 	(obj:9)
t_x_1218                                            1 	(obj:2)
t_x_1222                                            1 	(obj:15)
t_x_1225                                            1 	(obj:19)
t_x_1232                                            1 	(obj:4)
t_x_1234                                            1 	(obj:8)
t_x_1241                                            1 	(obj:49)
t_x_1245                                            1 	(obj:28)
t_x_1246                                            1 	(obj:26)
t_x_1248                                            1 	(obj:49)
t_x_1258                                            1 	(obj:58)
t_x_1259                                            1 	(obj:12)
t_x_1260                                            1 	(obj:28)
t_x_1263                                            1 	(obj:21)
t_x_1268                                            1 	(obj:34)
t_x_1278                                            1 	(obj:9)
t_x_1283                                            1 	(obj:8)
t_x_1292                                            1 	(obj:25)
t_x_1294                                            1 	(obj:30)
t_x_1295                                            1 	(obj:12)
t_x_1296                                            1 	(obj:11)
t_x_1297                                            1 	(obj:45)
t_x_1301                                            1 	(obj:39)
t_x_1309                                            1 	(obj:3)
t_x_1310                                            1 	(obj:17)
t_x_1311                                            1 	(obj:56)
t_x_1314                                            1 	(obj:24)
t_x_1316                                            1 	(obj:5)
t_x_1319                                            1 	(obj:12)
t_x_1321                                            1 	(obj:5)
t_x_1323                                            1 	(obj:25)
t_x_1327                                            1 	(obj:49)
t_x_1330                                            1 	(obj:22)
t_x_1335                                            1 	(obj:15)
t_x_1336                                            1 	(obj:0)
t_x_1337                                            1 	(obj:2)
t_x_1340                                            1 	(obj:29)
t_x_1346                                            1 	(obj:2)
t_x_1349                                            1 	(obj:34)
t_x_1351                                            1 	(obj:7)
t_x_1356                                            1 	(obj:5)
t_x_1358                                            1 	(obj:6)
t_x_1361                                            1 	(obj:16)
t_x_1363                                            1 	(obj:6)
t_x_1366                                            1 	(obj:1)
t_x_1370                                            1 	(obj:24)
t_x_1372                                            1 	(obj:4)
t_x_1375                                            1 	(obj:1)
t_x_1377                                            1 	(obj:10)
t_x_1387                                            1 	(obj:20)
t_x_1390                                            1 	(obj:18)
t_x_1392                                            1 	(obj:14)
t_x_1399                                            1 	(obj:25)
t_x_1406                                            1 	(obj:3)
t_x_1409                                            1 	(obj:5)
t_x_1411                                            1 	(obj:0)
t_x_1412                                            1 	(obj:37)
t_x_1413                                            1 	(obj:47)
t_x_1419                                            1 	(obj:10)
t_x_1421                                            1 	(obj:2)
t_x_1429                                            1 	(obj:17)
t_x_1431                                            1 	(obj:35)
t_x_1432                                            1 	(obj:25)
t_x_1443                                            1 	(obj:20)
t_x_1449                                            1 	(obj:10)
t_x_1454                                            1 	(obj:4)
t_x_1456                                            1 	(obj:28)
t_x_1460                                            1 	(obj:18)
t_x_1463                                            1 	(obj:1)
t_x_1464                                            1 	(obj:17)
t_x_1478                                            1 	(obj:2)
t_x_1479                                            1 	(obj:19)
t_x_1483                                            1 	(obj:35)
t_x_1484                                            1 	(obj:46)
t_x_1485                                            1 	(obj:38)
t_x_1487                                            1 	(obj:46)
t_x_1489                                            1 	(obj:4)
t_x_1490                                            1 	(obj:41)
t_x_1492                                            1 	(obj:31)
t_x_1493                                            1 	(obj:11)
t_x_1496                                            1 	(obj:34)
t_x_1497                                            1 	(obj:6)
t_x_1499                                            1 	(obj:19)
t_x_1501                                            1 	(obj:9)
t_x_1505                                            1 	(obj:2)
t_x_1513                                            1 	(obj:15)
t_x_1516                                            1 	(obj:14)
t_x_1517                                            1 	(obj:38)
t_x_1523                                            1 	(obj:20)
t_x_1524                                            1 	(obj:7)
t_x_1533                                            1 	(obj:4)
t_x_1536                                            1 	(obj:17)
t_x_1538                                            1 	(obj:7)
t_x_1542                                            1 	(obj:11)
t_x_1545                                            1 	(obj:16)
t_x_1547                                            1 	(obj:47)
t_x_1552                                            1 	(obj:61)
t_x_1557                                            1 	(obj:26)
t_x_1562                                            1 	(obj:32)
t_x_1563                                            1 	(obj:14)
t_x_1568                                            1 	(obj:49)
t_x_1569                                            1 	(obj:11)
t_x_1578                                            1 	(obj:11)
t_x_1581                                            1 	(obj:40)
t_x_1582                                            1 	(obj:23)
t_x_1585                                            1 	(obj:20)
t_x_1588                                            1 	(obj:37)
t_x_1596                                            1 	(obj:35)
t_x_1600                                            1 	(obj:10)
t_x_1602                                            1 	(obj:5)
t_x_1608                                            1 	(obj:38)
t_x_1611                                            1 	(obj:16)
t_x_1614                                            1 	(obj:2)
t_x_1615                                            1 	(obj:14)
t_x_1626                                            1 	(obj:37)
t_x_1627                                            1 	(obj:33)
t_x_1629                                            1 	(obj:29)
t_x_1630                                            1 	(obj:48)
t_x_1631                                            1 	(obj:38)
t_x_1633                                            1 	(obj:6)
t_x_1634                                            1 	(obj:26)
t_x_1635                                            1 	(obj:2)
t_x_1637                                            1 	(obj:37)
t_x_1641                                            1 	(obj:1)
t_x_1647                                            1 	(obj:36)
t_x_1648                                            1 	(obj:12)
t_x_1650                                            1 	(obj:10)
t_x_1651                                            1 	(obj:6)
t_x_1653                                            1 	(obj:7)
t_x_1657                                            1 	(obj:14)
t_x_1663                                            1 	(obj:3)
t_x_1664                                            1 	(obj:49)
t_x_1668                                            1 	(obj:3)
t_x_1669                                            1 	(obj:32)
t_x_1672                                            1 	(obj:33)
t_x_1673                                            1 	(obj:31)
t_x_1676                                            1 	(obj:8)
t_x_1682                                            1 	(obj:4)
t_x_1684                                            1 	(obj:15)
t_x_1689                                            1 	(obj:10)
t_x_1696                                            1 	(obj:13)
t_x_1705                                            1 	(obj:31)
t_x_1706                                            1 	(obj:5)
t_x_1707                                            1 	(obj:6)
t_x_1708                                            1 	(obj:27)
t_x_1712                                            1 	(obj:3)
t_x_1716                                            1 	(obj:43)
t_x_1721                                            1 	(obj:0)
t_x_1722                                            1 	(obj:21)
t_x_1725                                            1 	(obj:7)
t_x_1733                                            1 	(obj:13)
t_x_1743                                            1 	(obj:19)
t_x_1744                                            1 	(obj:23)
t_x_1751                                            1 	(obj:8)
t_x_1753                                            1 	(obj:30)
t_x_1755                                            1 	(obj:20)
t_x_1760                                            1 	(obj:11)
t_x_1763                                            1 	(obj:19)
t_x_1770                                            1 	(obj:30)
t_x_1776                                            1 	(obj:5)
t_x_1779                                            1 	(obj:32)
t_x_1782                                            1 	(obj:10)
t_x_1783                                            1 	(obj:14)
t_x_1788                                            1 	(obj:48)
t_x_1789                                            1 	(obj:8)
t_x_1790                                            1 	(obj:19)
t_x_1794                                            1 	(obj:36)
t_x_1795                                            1 	(obj:8)
t_x_1796                                            1 	(obj:36)
t_x_1803                                            1 	(obj:18)
t_x_1807                                            1 	(obj:9)
t_x_1808                                            1 	(obj:21)
t_x_1811                                            1 	(obj:15)
t_x_1814                                            1 	(obj:21)
t_x_1817                                            1 	(obj:18)
t_x_1818                                            1 	(obj:4)
t_x_1824                                            1 	(obj:6)
t_x_1830                                            1 	(obj:9)
t_x_1837                                            1 	(obj:4)
t_x_1838                                            1 	(obj:29)
t_x_1839                                            1 	(obj:11)
t_x_1842                                            1 	(obj:4)
t_x_1845                                            1 	(obj:9)
t_x_1850                                            1 	(obj:25)
t_x_1852                                            1 	(obj:35)
t_x_1853                                            1 	(obj:23)
t_x_1856                                            1 	(obj:69)
t_x_1860                                            1 	(obj:13)
t_x_1862                                            1 	(obj:7)
t_x_1864                                            1 	(obj:2)
t_x_1866                                            1 	(obj:41)
t_x_1868                                            1 	(obj:13)
t_x_1873                                            1 	(obj:5)
t_x_1874                                            1 	(obj:25)
t_x_1878                                            1 	(obj:27)
t_x_1886                                            1 	(obj:19)
t_x_1888                                            1 	(obj:3)
t_x_1889                                            1 	(obj:23)
t_x_1892                                            1 	(obj:11)
t_x_1893                                            1 	(obj:38)
t_x_1904                                            1 	(obj:11)
t_x_1908                                            1 	(obj:19)
t_x_1911                                            1 	(obj:7)
t_x_1913                                            1 	(obj:15)
t_x_1914                                            1 	(obj:1)
t_x_1915                                            1 	(obj:31)
t_x_1916                                            1 	(obj:62)
t_x_1932                                            1 	(obj:30)
t_x_1947                                            1 	(obj:34)
t_x_1948                                            1 	(obj:4)
t_x_1949                                            1 	(obj:12)
t_x_1950                                            1 	(obj:31)
t_x_1955                                            1 	(obj:36)
t_x_1956                                            1 	(obj:48)
t_x_1958                                            1 	(obj:2)
t_x_1960                                            1 	(obj:40)
t_x_1964                                            1 	(obj:38)
t_x_1966                                            1 	(obj:42)
t_x_1967                                            1 	(obj:48)
t_x_1969                                            1 	(obj:49)
t_x_1971                                            1 	(obj:5)
t_x_1973                                            1 	(obj:18)
t_x_1976                                            1 	(obj:21)
t_x_1981                                            1 	(obj:7)
t_x_1982                                            1 	(obj:7)
t_x_1983                                            1 	(obj:28)
t_x_1985                                            1 	(obj:12)
t_x_1987                                            1 	(obj:29)
t_x_1988                                            1 	(obj:7)
t_x_1989                                            1 	(obj:4)
t_x_1990                                            1 	(obj:24)
t_x_1994                                            1 	(obj:23)
t_x_1998                                            1 	(obj:2)
